solution status: optimal solution found
objective value:                                    0
$_12_y                                             -2 	(obj:0)
$_12_z                                              1 	(obj:0)
$_8_y                                              -1 	(obj:0)
$_8_z                                              -1 	(obj:0)
$_2_y                                              -1 	(obj:0)
$_11_y                                             -3 	(obj:0)
$_10_y                                             -1 	(obj:0)
$_10_z                                              1 	(obj:0)
$_3_y                                              -2 	(obj:0)
$_9_z                                              -1 	(obj:0)
$_6_y                                              -3 	(obj:0)
$_6_z                                               1 	(obj:0)
$_5_z                                              -2 	(obj:0)
$_7_y                                              -1 	(obj:0)
$_7_z                                               2 	(obj:0)
$_4_y                                              -2 	(obj:0)
$_4_z                                              -1 	(obj:0)
